p cnf 25 62
a 15 0
e 1 2 3 4 5 6 7 8 9 10 11 12 13 14 16 17 18 19 20 21 22 23 24 25 0
-4 -2 0
-4 3 0
2 -3 4 0
5 1 0
5 -4 0
-1 4 -5 0
7 -6 0
7 -4 0
6 4 -7 0
9 8 0
9 6 0
-8 -6 -9 0
-7 -9 -10 0
7 9 -10 0
-7 9 10 0
7 -9 10 0
12 10 0
12 -11 0
-10 11 -12 0
5 12 -13 0
-5 -12 -13 0
5 -12 13 0
-5 12 13 0
-14 -6 0
-14 2 0
6 -2 14 0
-16 -10 0
-16 -15 0
10 15 16 0
17 -14 0
17 16 0
14 -16 -17 0
18 4 0
18 -15 0
-4 15 -18 0
-20 8 0
-20 -19 0
-8 19 20 0
-18 20 -21 0
18 -20 -21 0
-18 -20 21 0
18 20 21 0
22 -17 0
22 21 0
17 -21 -22 0
23 -1 0
23 15 0
1 -15 -23 0
-24 -22 0
-24 23 0
22 -23 24 0
13 -24 -25 0
-13 24 -25 0
13 24 25 0
-13 -24 25 0
13 20 -19 -1 -2 0
20 -3 5 -14 4 0
25 -14 13 20 0
-4 1 15 0
-10 14 -19 5 -20 18 -11 0
-13 -20 -18 -14 1 -22 0
25 0
